(set-info :status unknown)
(declare-const symbol_187 (_ BitVec 32))
(declare-const symbol_90 (_ BitVec 32))
(declare-const symbol_155 (_ BitVec 32))
(declare-const symbol_68 (_ BitVec 32))
(declare-const symbol_163 (_ BitVec 32))
(declare-const symbol_35 (_ BitVec 32))
(declare-const symbol_25 (_ BitVec 32))
(declare-const symbol_197 (_ BitVec 32))
(declare-const symbol_125 (_ BitVec 32))
(declare-const symbol_112 (_ BitVec 32))
(declare-const symbol_27 (_ BitVec 32))
(declare-const symbol_189 (_ BitVec 32))
(declare-const symbol_110 (_ BitVec 32))
(declare-const symbol_153 (_ BitVec 32))
(declare-const symbol_149 (_ BitVec 32))
(declare-const symbol_58 (_ BitVec 32))
(declare-const symbol_17 (_ BitVec 32))
(declare-const symbol_193 (_ BitVec 32))
(declare-const symbol_115 (_ BitVec 32))
(declare-const symbol_33 (_ BitVec 32))
(declare-const symbol_178 (_ BitVec 32))
(declare-const symbol_54 (_ BitVec 32))
(declare-const symbol_45 (_ BitVec 32))
(declare-const symbol_106 (_ BitVec 32))
(declare-const symbol_49 (_ BitVec 32))
(declare-const symbol_182 (_ BitVec 32))
(declare-const symbol_167 (_ BitVec 32))
(declare-const symbol_131 (_ BitVec 32))
(declare-const symbol_137 (_ BitVec 32))
(declare-const symbol_63 (_ BitVec 32))
(declare-const symbol_171 (_ BitVec 32))
(declare-const symbol_157 (_ BitVec 32))
(declare-const symbol_141 (_ BitVec 32))
(declare-const symbol_102 (_ BitVec 32))
(declare-const symbol_85 (_ BitVec 32))
(declare-const symbol_172 (_ BitVec 32))
(declare-const symbol_143 (_ BitVec 32))
(declare-const symbol_77 (_ BitVec 32))
(declare-const symbol_4 (_ BitVec 32))
(declare-const symbol_135 (_ BitVec 32))
(declare-const symbol_29 (_ BitVec 32))
(declare-const symbol_23 (_ BitVec 32))
(declare-const symbol_15 (_ BitVec 32))
(declare-const symbol_0 (_ BitVec 32))
(declare-const symbol_139 (_ BitVec 32))
(declare-const symbol_104 (_ BitVec 32))
(declare-const symbol_184 (_ BitVec 32))
(declare-const symbol_9 (_ BitVec 32))
(declare-const symbol_92 (_ BitVec 32))
(declare-const symbol_161 (_ BitVec 32))
(declare-const symbol_47 (_ BitVec 32))
(declare-const symbol_108 (_ BitVec 32))
(declare-const symbol_133 (_ BitVec 32))
(declare-const symbol_61 (_ BitVec 32))
(declare-const symbol_11 (_ BitVec 32))
(declare-const symbol_123 (_ BitVec 32))
(declare-const symbol_95 (_ BitVec 32))
(declare-const symbol_145 (_ BitVec 32))
(declare-const symbol_117 (_ BitVec 32))
(declare-const symbol_100 (_ BitVec 32))
(declare-const symbol_6 (_ BitVec 32))
(declare-const symbol_1 (_ BitVec 32))
(declare-const symbol_127 (_ BitVec 32))
(declare-const symbol_74 (_ BitVec 32))
(declare-const symbol_72 (_ BitVec 32))
(declare-const symbol_41 (_ BitVec 32))
(declare-const symbol_191 (_ BitVec 32))
(declare-const symbol_176 (_ BitVec 32))
(declare-const symbol_83 (_ BitVec 32))
(declare-const symbol_79 (_ BitVec 32))
(declare-const symbol_97 (_ BitVec 32))
(declare-const symbol_147 (_ BitVec 32))
(declare-const symbol_66 (_ BitVec 32))
(declare-const symbol_180 (_ BitVec 32))
(declare-const symbol_169 (_ BitVec 32))
(declare-const symbol_37 (_ BitVec 32))
(declare-const symbol_21 (_ BitVec 32))
(declare-const symbol_19 (_ BitVec 32))
(declare-const symbol_88 (_ BitVec 32))
(declare-const symbol_43 (_ BitVec 32))
(declare-const symbol_174 (_ BitVec 32))
(declare-const symbol_93 (_ BitVec 32))
(declare-const symbol_86 (_ BitVec 32))
(declare-const symbol_51 (_ BitVec 32))
(declare-const symbol_199 (_ BitVec 32))
(declare-const symbol_151 (_ BitVec 32))
(declare-const symbol_31 (_ BitVec 32))
(declare-const symbol_186 (_ BitVec 32))
(declare-const symbol_121 (_ BitVec 32))
(declare-const symbol_13 (_ BitVec 32))
(declare-const symbol_165 (_ BitVec 32))
(declare-const symbol_56 (_ BitVec 32))
(declare-const symbol_39 (_ BitVec 32))
(declare-const symbol_159 (_ BitVec 32))
(declare-const symbol_8 (_ BitVec 32))
(declare-const symbol_195 (_ BitVec 32))
(declare-const symbol_129 (_ BitVec 32))
(declare-const symbol_119 (_ BitVec 32))
(declare-const symbol_114 (_ BitVec 32))
(declare-const symbol_81 (_ BitVec 32))
(declare-const symbol_70 (_ BitVec 32))
(declare-const symbol_201 (_ BitVec 32))
(assert (not (= symbol_201 (_ bv7 32))))
(assert (not (not (= symbol_199 (_ bv7 32)))))
(assert (not (not (= symbol_197 (_ bv7 32)))))
(assert (not (not (= symbol_195 (_ bv7 32)))))
(assert (not (not (= symbol_193 (_ bv7 32)))))
(assert (not (not (= symbol_191 (_ bv7 32)))))
(assert (not (not (= symbol_189 (_ bv7 32)))))
(assert (not (not (= symbol_187 (_ bv7 32)))))
(assert (not (not (= symbol_186 (_ bv7 32)))))
(assert (not (not (= symbol_184 (_ bv7 32)))))
(assert (not (not (= symbol_182 (_ bv7 32)))))
(assert (not (not (= symbol_180 (_ bv7 32)))))
(assert (not (not (= symbol_178 (_ bv7 32)))))
(assert (not (not (= symbol_176 (_ bv7 32)))))
(assert (not (not (= symbol_174 (_ bv7 32)))))
(assert (not (not (= symbol_172 (_ bv7 32)))))
(assert (not (not (= symbol_171 (_ bv7 32)))))
(assert (not (not (= symbol_169 (_ bv7 32)))))
(assert (not (not (= symbol_167 (_ bv7 32)))))
(assert (not (not (= symbol_165 (_ bv7 32)))))
(assert (not (not (= symbol_163 (_ bv7 32)))))
(assert (not (not (= symbol_161 (_ bv7 32)))))
(assert (not (not (= symbol_159 (_ bv7 32)))))
(assert (not (not (= symbol_157 (_ bv7 32)))))
(assert (not (not (= symbol_155 (_ bv7 32)))))
(assert (not (not (= symbol_153 (_ bv7 32)))))
(assert (not (not (= symbol_151 (_ bv7 32)))))
(assert (not (not (= symbol_149 (_ bv7 32)))))
(assert (not (not (= symbol_147 (_ bv7 32)))))
(assert (not (not (= symbol_145 (_ bv7 32)))))
(assert (not (not (= symbol_143 (_ bv7 32)))))
(assert (not (not (= symbol_141 (_ bv7 32)))))
(assert (not (not (= symbol_139 (_ bv7 32)))))
(assert (not (not (= symbol_137 (_ bv7 32)))))
(assert (not (not (= symbol_135 (_ bv7 32)))))
(assert (not (not (= symbol_133 (_ bv7 32)))))
(assert (not (not (= symbol_131 (_ bv7 32)))))
(assert (not (not (= symbol_129 (_ bv7 32)))))
(assert (not (not (= symbol_127 (_ bv7 32)))))
(assert (not (not (= symbol_125 (_ bv7 32)))))
(assert (not (not (= symbol_123 (_ bv7 32)))))
(assert (not (not (= symbol_121 (_ bv7 32)))))
(assert (not (not (= symbol_119 (_ bv7 32)))))
(assert (not (not (= symbol_117 (_ bv7 32)))))
(assert (not (not (= symbol_115 (_ bv7 32)))))
(assert (not (not (= symbol_114 (_ bv7 32)))))
(assert (not (not (= symbol_112 (_ bv7 32)))))
(assert (not (not (= symbol_110 (_ bv7 32)))))
(assert (not (not (= symbol_108 (_ bv7 32)))))
(assert (not (not (= symbol_106 (_ bv7 32)))))
(assert (not (not (= symbol_104 (_ bv7 32)))))
(assert (not (not (= symbol_102 (_ bv7 32)))))
(assert (not (not (= symbol_100 (_ bv7 32)))))
(assert (not (not (= symbol_97 (_ bv7 32)))))
(assert (not (not (= symbol_95 (_ bv7 32)))))
(assert (not (not (= symbol_93 (_ bv7 32)))))
(assert (not (not (= symbol_92 (_ bv7 32)))))
(assert (not (not (= symbol_90 (_ bv7 32)))))
(assert (not (not (= symbol_88 (_ bv7 32)))))
(assert (not (not (= symbol_86 (_ bv7 32)))))
(assert (not (not (= symbol_85 (_ bv7 32)))))
(assert (not (not (= symbol_83 (_ bv7 32)))))
(assert (not (not (= symbol_81 (_ bv7 32)))))
(assert (not (not (= symbol_79 (_ bv7 32)))))
(assert (not (not (= symbol_77 (_ bv7 32)))))
(assert (not (not (= symbol_74 (_ bv7 32)))))
(assert (not (not (= symbol_72 (_ bv7 32)))))
(assert (not (not (= symbol_70 (_ bv7 32)))))
(assert (not (not (= symbol_68 (_ bv7 32)))))
(assert (not (not (= symbol_66 (_ bv7 32)))))
(assert (not (not (= symbol_63 (_ bv7 32)))))
(assert (not (not (= symbol_61 (_ bv7 32)))))
(assert (not (not (= symbol_58 (_ bv7 32)))))
(assert (not (not (= symbol_56 (_ bv7 32)))))
(assert (not (not (= symbol_54 (_ bv7 32)))))
(assert (not (not (= symbol_51 (_ bv7 32)))))
(assert (not (not (= symbol_49 (_ bv7 32)))))
(assert (not (not (= symbol_47 (_ bv7 32)))))
(assert (not (not (= symbol_45 (_ bv7 32)))))
(assert (not (not (= symbol_43 (_ bv7 32)))))
(assert (not (not (= symbol_41 (_ bv7 32)))))
(assert (not (not (= symbol_39 (_ bv7 32)))))
(assert (not (not (= symbol_37 (_ bv7 32)))))
(assert (not (not (= symbol_35 (_ bv7 32)))))
(assert (not (not (= symbol_33 (_ bv7 32)))))
(assert (not (not (= symbol_31 (_ bv7 32)))))
(assert (not (not (= symbol_29 (_ bv7 32)))))
(assert (not (not (= symbol_27 (_ bv7 32)))))
(assert (not (not (= symbol_25 (_ bv7 32)))))
(assert (not (not (= symbol_23 (_ bv7 32)))))
(assert (not (not (= symbol_21 (_ bv7 32)))))
(assert (not (not (= symbol_19 (_ bv7 32)))))
(assert (not (not (= symbol_17 (_ bv7 32)))))
(assert (not (not (= symbol_15 (_ bv7 32)))))
(assert (not (not (= symbol_13 (_ bv7 32)))))
(assert (not (not (= symbol_11 (_ bv7 32)))))
(assert (not (not (= symbol_9 (_ bv7 32)))))
(assert (not (not (= symbol_8 (_ bv7 32)))))
(assert (not (not (= symbol_6 (_ bv7 32)))))
(assert (not (not (= symbol_4 (_ bv7 32)))))
(assert (not (not (= symbol_1 (_ bv7 32)))))
(assert (not (not (= symbol_0 (_ bv7 32)))))
(check-sat)